(set-logic ALL)
(set-option :produce-models true)
(set-option :parse-transducers true)
(define-fun-rec toLower ((x String) (y String)) Bool
   (or (and (= x "") (= y ""))
       (and (not (= x "")) (not (= y ""))
           (= (char.code (str.head y))
               (ite (and (<= 65 (char.code (str.head x)))
                       (<= (char.code (str.head x)) 90))
                   (+ (char.code (str.head x)) 32)
                   (char.code (str.head x))))
           (toLower (str.tail x) (str.tail y))))
)
(declare-fun sym249 () String)
(declare-fun sym404 () String)
(declare-fun sym646 () String)
(declare-fun sym484 () String)
(declare-fun sym440 () String)
(declare-fun sym200 () String)
(declare-fun sym323 () String)
(declare-fun sym566 () String)
(declare-fun sym600 () String)
(declare-fun sym160 () String)
(declare-fun sym284 () String)
(declare-fun sym414 () String)
(declare-fun sym656 () String)
(declare-fun sym338 () String)
(declare-fun sym494 () String)
(declare-fun sym450 () String)
(declare-fun sym374 () String)
(declare-fun sym298 () String)
(declare-fun sym210 () String)
(declare-fun sym135 () String)
(declare-fun sym576 () String)
(declare-fun sym532 () String)
(declare-fun sym610 () String)
(declare-fun sym170 () String)
(declare-fun sym690 () String)
(declare-fun sym700 () String)
(declare-fun sym348 () String)
(declare-fun sym20 () String)
(declare-fun sym504 () String)
(declare-fun sym384 () String)
(declare-fun sym264 () String)
(declare-fun sym145 () String)
(declare-fun sym542 () String)
(declare-fun sym620 () String)
(declare-fun sym224 () String)
(declare-fun sym666 () String)
(declare-fun sym180 () String)
(declare-fun sym460 () String)
(declare-fun sym239 () String)
(declare-fun sym636 () String)
(declare-fun sym518 () String)
(declare-fun sym274 () String)
(declare-fun sym430 () String)
(declare-fun sym113 () String)
(declare-fun sym313 () String)
(declare-fun sym676 () String)
(declare-fun sym358 () String)
(declare-fun sym556 () String)
(declare-fun sym710 () String)
(declare-fun sym190 () String)
(declare-fun sym590 () String)
(declare-fun sym470 () String)
(declare-fun sym394 () String)
(define-fun Alphabet () RegLan 
	(re.* (re.union (str.to_re "A") (str.to_re "B") (str.to_re "C") (str.to_re "D") (str.to_re "E") (str.to_re "F") (str.to_re "G") (str.to_re "H") (str.to_re "I") (str.to_re "J") (str.to_re "K") (str.to_re "L") (str.to_re "M") (str.to_re "N") (str.to_re "O") (str.to_re "P") (str.to_re "Q") (str.to_re "R") (str.to_re "S") (str.to_re "T") (str.to_re "U") (str.to_re "V") (str.to_re "W") (str.to_re "X") (str.to_re "Y") (str.to_re "Z") (str.to_re "a") (str.to_re "b") (str.to_re "c") (str.to_re "d") (str.to_re "e") (str.to_re "f") (str.to_re "g") (str.to_re "h") (str.to_re "i") (str.to_re "j") (str.to_re "k") (str.to_re "l") (str.to_re "m") (str.to_re "n") (str.to_re "o") (str.to_re "p") (str.to_re "q") (str.to_re "r") (str.to_re "s") (str.to_re "t") (str.to_re "u") (str.to_re "v") (str.to_re "w") (str.to_re "x") (str.to_re "y") (str.to_re "z") ))
)
(declare-fun L40  () String)
(assert (toLower sym298  L40 ))
(declare-fun L2  () String)
(assert (toLower sym504  L2 ))
(declare-fun L72  () String)
(assert (toLower sym590  L72 ))
(declare-fun L60  () String)
(assert (toLower sym676  L60 ))
(declare-fun L92  () String)
(assert (toLower sym556  L92 ))
(declare-fun L44  () String)
(assert (toLower sym313  L44 ))
(declare-fun L6  () String)
(assert (toLower sym404  L6 ))
(declare-fun L76  () String)
(assert (toLower sym200  L76 ))
(declare-fun L32  () String)
(assert (toLower sym224  L32 ))
(declare-fun L64  () String)
(assert (toLower sym532  L64 ))
(declare-fun L20  () String)
(assert (toLower sym358  L20 ))
(declare-fun L96  () String)
(assert (toLower sym518  L96 ))
(declare-fun L52  () String)
(assert (toLower sym135  L52 ))
(declare-fun L48  () String)
(assert (toLower sym470  L48 ))
(declare-fun L36  () String)
(assert (toLower sym160  L36 ))
(declare-fun L68  () String)
(assert (toLower sym542  L68 ))
(declare-fun L24  () String)
(assert (toLower sym374  L24 ))
(declare-fun L56  () String)
(assert (toLower sym338  L56 ))
(declare-fun L12  () String)
(assert (toLower sym239  L12 ))
(declare-fun L28  () String)
(assert (toLower sym264  L28 ))
(declare-fun L16  () String)
(assert (toLower sym566  L16 ))
(declare-fun L100  () String)
(assert (toLower sym440  L100 ))
(declare-fun L1  () String)
(assert (toLower "description"  L1 ))
(declare-fun L81  () String)
(assert (toLower sym145  L81 ))
(declare-fun L21  () String)
(assert (toLower "type"  L21 ))
(declare-fun L5  () String)
(assert (toLower "database"  L5 ))
(declare-fun L85  () String)
(assert (toLower sym170  L85 ))
(declare-fun L104  () String)
(assert (toLower sym610  L104 ))
(declare-fun L90  () String)
(assert (toLower sym274  L90 ))
(declare-fun L0  () String)
(assert (toLower sym494  L0 ))
(declare-fun L62  () String)
(assert (toLower sym348  L62 ))
(declare-fun L94  () String)
(assert (toLower sym710  L94 ))
(declare-fun L50  () String)
(assert (toLower sym430  L50 ))
(declare-fun L4  () String)
(assert (toLower sym113  L4 ))
(declare-fun L70  () String)
(assert (toLower sym690  L70 ))
(declare-fun L66  () String)
(assert (toLower sym450  L66 ))
(declare-fun L22  () String)
(assert (toLower sym249  L22 ))
(declare-fun L98  () String)
(assert (toLower sym646  L98 ))
(declare-fun L54  () String)
(assert (toLower sym666  L54 ))
(declare-fun L10  () String)
(assert (toLower sym636  L10 ))
(declare-fun L42  () String)
(assert (toLower sym460  L42 ))
(declare-fun L8  () String)
(assert (toLower sym620  L8 ))
(declare-fun L74  () String)
(assert (toLower sym323  L74 ))
(declare-fun L30  () String)
(assert (toLower sym600  L30 ))
(declare-fun L26  () String)
(assert (toLower sym180  L26 ))
(declare-fun L58  () String)
(assert (toLower sym576  L58 ))
(declare-fun L14  () String)
(assert (toLower sym384  L14 ))
(declare-fun L46  () String)
(assert (toLower sym700  L46 ))
(declare-fun L78  () String)
(assert (toLower sym20  L78 ))
(declare-fun L34  () String)
(assert (toLower sym414  L34 ))
(declare-fun L18  () String)
(assert (toLower sym284  L18 ))
(declare-fun L38  () String)
(assert (toLower sym190  L38 ))
(declare-fun L102  () String)
(assert (toLower sym656  L102 ))
(declare-fun L83  () String)
(assert (toLower sym394  L83 ))
(declare-fun L3  () String)
(assert (toLower "field"  L3 ))
(declare-fun L11  () String)
(assert (toLower "name"  L11 ))
(declare-fun L87  () String)
(assert (toLower sym484  L87 ))
(declare-fun L7  () String)
(assert (toLower "length"  L7 ))
(declare-fun L79  () String)
(assert (toLower sym210  L79 ))
(declare-fun L35  () String)
(assert (toLower "option"  L35 ))
(declare-fun L27  () String)
(assert (toLower "table"  L27 ))

(assert (str.in_re sym394 Alphabet))
(assert (str.in_re sym470 Alphabet))
(assert (str.in_re sym590 Alphabet))
(assert (str.in_re sym190 Alphabet))
(assert (str.in_re sym710 Alphabet))
(assert (str.in_re sym556 Alphabet))
(assert (str.in_re sym358 Alphabet))
(assert (str.in_re sym676 Alphabet))
(assert (str.in_re sym313 Alphabet))
(assert (str.in_re sym113 Alphabet))
(assert (str.in_re sym430 Alphabet))
(assert (str.in_re sym274 Alphabet))
(assert (str.in_re sym518 Alphabet))
(assert (str.in_re sym636 Alphabet))
(assert (str.in_re sym239 Alphabet))
(assert (str.in_re sym460 Alphabet))
(assert (str.in_re sym180 Alphabet))
(assert (str.in_re sym666 Alphabet))
(assert (str.in_re sym224 Alphabet))
(assert (str.in_re sym620 Alphabet))
(assert (str.in_re sym542 Alphabet))
(assert (str.in_re sym145 Alphabet))
(assert (str.in_re sym264 Alphabet))
(assert (str.in_re sym384 Alphabet))
(assert (str.in_re sym504 Alphabet))
(assert (str.in_re sym20 Alphabet))
(assert (str.in_re sym348 Alphabet))
(assert (str.in_re sym700 Alphabet))
(assert (str.in_re sym690 Alphabet))
(assert (str.in_re sym170 Alphabet))
(assert (str.in_re sym610 Alphabet))
(assert (str.in_re sym532 Alphabet))
(assert (str.in_re sym576 Alphabet))
(assert (str.in_re sym135 Alphabet))
(assert (str.in_re sym210 Alphabet))
(assert (str.in_re sym298 Alphabet))
(assert (str.in_re sym374 Alphabet))
(assert (str.in_re sym450 Alphabet))
(assert (str.in_re sym494 Alphabet))
(assert (str.in_re sym338 Alphabet))
(assert (str.in_re sym656 Alphabet))
(assert (str.in_re sym414 Alphabet))
(assert (str.in_re sym284 Alphabet))
(assert (str.in_re sym160 Alphabet))
(assert (str.in_re sym600 Alphabet))
(assert (str.in_re sym566 Alphabet))
(assert (str.in_re sym323 Alphabet))
(assert (str.in_re sym200 Alphabet))
(assert (str.in_re sym440 Alphabet))
(assert (str.in_re sym484 Alphabet))
(assert (str.in_re sym646 Alphabet))
(assert (str.in_re sym404 Alphabet))
(assert (str.in_re sym249 Alphabet))
(assert (not (= L0 L1 )))
(assert (= L2 L3 ))
(assert (= L4 L5 ))
(assert (not (= L6 L7 )))
(assert (= L8 L7 ))
(assert (not (= L10 L11 )))
(assert (not (= L12 L11 )))
(assert (not (= L14 L1 )))
(assert (not (= L16 L1 )))
(assert (= L18 L3 ))
(assert (= L20 L21 ))
(assert (= L22 L1 ))
(assert (not (= L24 L11 )))
(assert (not (= L26 L27 )))
(assert (not (= L28 L11 )))
(assert (not (= L30 L1 )))
(assert (= L32 L11 ))
(assert (= L34 L35 ))
(assert (not (= L36 L11 )))
(assert (not (= L38 L11 )))
(assert (= L40 L11 ))
(assert (not (= L42 L7 )))
(assert (not (= L44 L11 )))
(assert (not (= L46 L1 )))
(assert (= L48 L35 ))
(assert (not (= L50 L11 )))
(assert (not (= L52 L11 )))
(assert (not (= L54 L7 )))
(assert (not (= L56 L11 )))
(assert (= L58 L21 ))
(assert (= L60 L35 ))
(assert (not (= L62 L1 )))
(assert (not (= L64 L11 )))
(assert (not (= L66 L21 )))
(assert (= L68 L1 ))
(assert (not (= L70 L11 )))
(assert (not (= L72 L11 )))
(assert (= L74 L1 ))
(assert (not (= L76 L1 )))
(assert (= L78 "html" ))
(assert (= L79 L27 ))
(assert (= L81 L1 ))
(assert (not (= L83 L21 )))
(assert (not (= L85 L1 )))
(assert (not (= L87 L11 )))
(assert (not (= L78 "sql" )))
(assert (not (= L90 L1 )))
(assert (not (= L92 L11 )))
(assert (not (= L94 L3 )))
(assert (= L96 L11 ))
(assert (not (= L98 L1 )))
(assert (not (= L100 L1 )))
(assert (not (= L102 L21 )))
(assert (not (= L104 L21 )))
(check-sat)
(get-model)
(exit)
